
List of user-set options:

                                    Name   Value                used
                           compl_inf_tol = 1                     yes
                         constr_viol_tol = 1                     yes
                            dual_inf_tol = 1000                  yes
                           linear_solver = ma97                  yes
                              ma86_small = 1e-30                  no
                                  ma86_u = 0.0001                 no
                              ma97_order = best                  yes
                              ma97_small = 1e-30                 yes
                            ma97_switch1 = at_start              yes
                            ma97_switch2 = od_hd_reuse           yes
                                  ma97_u = 1e-06                 yes
                               ma97_umax = 0.5                   yes
                                max_iter = 1000                  yes
                    max_refinement_steps = 20                    yes
                    min_refinement_steps = 5                     yes
                                 mu_init = 1e-06                 yes
           mu_superlinear_decrease_power = 1.25                  yes
                   nlp_scaling_min_value = 1e-08                 yes
                        option_file_name = Preset_Case_860_pf.opt  yes
                             output_file = ./tmp/Preset_Case_860_pf.output  yes
                      print_user_options = yes                   yes
        required_infeasibility_reduction = 1                      no
                                     tol = 1e-08                 yes
                   warm_start_bound_frac = 1e-20                 yes
                   warm_start_bound_push = 1e-20                 yes
                   warm_start_init_point = yes                   yes
              warm_start_mult_bound_push = 1e-20                 yes
                warm_start_mult_init_max = 1e+40                 yes
             warm_start_slack_bound_frac = 1e-20                 yes
             warm_start_slack_bound_push = 1e-20                 yes

******************************************************************************
This program contains Ipopt, a library for large-scale nonlinear optimization.
 Ipopt is released as open source code under the Eclipse Public License (EPL).
         For more information visit http://projects.coin-or.org/Ipopt
******************************************************************************

This is Ipopt version 3.12.10, running with linear solver ma97.

Number of nonzeros in equality constraint Jacobian...:   123442
Number of nonzeros in inequality constraint Jacobian.:      213
Number of nonzeros in Lagrangian Hessian.............:    49069

Total number of variables............................:    31591
                     variables with only lower bounds:    12912
                variables with lower and upper bounds:    15130
                     variables with only upper bounds:        0
Total number of equality constraints.................:    31483
Total number of inequality constraints...............:       25
        inequality constraints with only lower bounds:        4
   inequality constraints with lower and upper bounds:        0
        inequality constraints with only upper bounds:       21

iter    objective    inf_pr   inf_du lg(mu)  ||d||  lg(rg) alpha_du alpha_pr  ls
   0 -5.3311810e+00 4.05e-03 1.02e+00  -6.0 0.00e+00    -  0.00e+00 0.00e+00   0
   1 -5.3348003e+00 6.32e+00 2.86e+01  -6.0 4.32e+05    -  7.23e-05 8.95e-04h  1
   2 -5.3348790e+00 6.32e+00 9.27e+01  -6.0 5.06e+03    -  1.71e-01 3.52e-04f  1
   3 -5.3321653e+00 6.31e+00 1.45e+03  -6.0 1.66e+04    -  5.04e-03 1.04e-03h  8
   4 -5.3308324e+00 6.25e+00 1.42e+03  -6.0 4.00e+03    -  5.61e-03 1.05e-02h  6
   5 -5.3304520e+00 6.23e+00 1.48e+03  -6.0 3.77e+03    -  1.07e-02 2.80e-03h  8
   6 -5.3304085e+00 6.23e+00 1.66e+03  -6.0 3.83e+03    -  2.52e-02 3.70e-04h 11
   7 -5.3852063e+00 1.10e+01 2.65e+03  -6.0 3.77e+03    -  2.39e-02 4.10e-01h  1
   8 -5.5081479e+00 1.82e+01 2.34e+03  -6.0 3.51e+03    -  2.69e-01 2.48e-01h  1
   9 -5.8578730e+00 8.11e+01 5.35e+03  -6.0 3.12e+03    -  2.52e-01 7.64e-01h  1
iter    objective    inf_pr   inf_du lg(mu)  ||d||  lg(rg) alpha_du alpha_pr  ls
  10 -5.8580760e+00 8.07e+01 9.17e+03  -6.0 4.95e+01  -4.0 4.54e-02 5.04e-03h  1
  11 -5.9069967e+00 5.61e+01 1.14e+04  -6.0 2.02e+03    -  8.00e-03 5.34e-01f  1
  12 -5.9218810e+00 4.56e+01 1.74e+04  -6.0 1.90e+03    -  8.77e-02 6.92e-01h  1
  13 -5.9141968e+00 1.70e+00 2.11e+05  -6.0 5.91e+01  -4.5 3.54e-02 9.64e-01h  1
  14 -5.9158133e+00 1.46e+00 1.81e+05  -6.0 1.31e+01  -5.0 7.94e-01 1.40e-01h  1
  15 -5.9126270e+00 7.40e-02 8.47e+02  -6.0 1.13e+01  -5.4 9.05e-03 1.00e+00h  1
  16 -5.9126228e+00 7.43e-02 7.79e+02  -6.0 2.36e+01  -5.9 6.54e-01 1.06e-02h  6
  17 -5.9170896e+00 7.70e+00 2.14e+02  -6.0 5.76e+01  -6.4 1.18e-01 1.00e+00h  1
  18 -5.9225408e+00 5.73e+00 1.05e+02  -6.0 1.65e+02  -6.9 6.92e-01 2.57e-01h  1
  19 -5.9283784e+00 4.54e+00 9.26e+03  -6.0 1.13e+02  -7.3 8.39e-01 4.82e-01h  1
iter    objective    inf_pr   inf_du lg(mu)  ||d||  lg(rg) alpha_du alpha_pr  ls
  20 -5.9336988e+00 3.14e+00 4.09e+04  -6.0 1.01e+03    -  1.00e+00 3.08e-01h  1
  21 -5.9450118e+00 1.12e+01 4.11e+03  -6.0 8.56e+02    -  1.00e+00 9.52e-01h  1
  22 -5.9481171e+00 6.87e+00 1.66e+05  -6.0 1.13e+02    -  1.00e+00 3.90e-01h  1
  23 -5.9537769e+00 3.40e+00 2.91e+05  -6.0 1.46e+02    -  1.00e+00 5.10e-01h  1
  24r-5.9537769e+00 3.40e+00 1.00e+03   0.3 0.00e+00    -  0.00e+00 3.36e-07R  2
  25r-5.9656126e+00 3.40e+00 1.00e+03   0.3 1.48e+04    -  3.39e-06 1.07e-06f  1
  26 -5.9649976e+00 3.25e+00 7.08e+05  -6.0 8.30e+00    -  4.83e-01 4.41e-02h  1
  27 -5.9599535e+00 2.03e+00 6.29e+06  -6.0 1.03e+01    -  4.41e-02 3.75e-01h  1
  28 -5.9526859e+00 2.74e-01 8.50e+05  -6.0 8.84e+00    -  8.19e-01 8.65e-01h  1
  29 -5.9520384e+00 1.80e-04 1.15e+01  -6.0 1.73e+00    -  9.56e-01 1.00e+00h  1
iter    objective    inf_pr   inf_du lg(mu)  ||d||  lg(rg) alpha_du alpha_pr  ls
  30 -5.9569119e+00 3.79e-02 2.52e+01  -6.0 2.27e+01    -  8.30e-01 1.00e+00h  1
  31 -5.9601847e+00 7.16e-02 1.80e+01  -6.0 5.89e+01    -  9.55e-01 4.49e-01h  1
  32 -5.9623298e+00 5.03e-01 2.17e+01  -6.0 8.85e+02  -6.9 2.27e-01 6.21e-02h  1
  33 -5.9661841e+00 3.64e-01 2.14e+01  -6.0 1.43e+02    -  9.48e-01 4.69e-01h  1
  34 -5.9696333e+00 1.33e+00 2.84e+01  -6.0 3.97e+02    -  4.16e-01 5.08e-01h  1
  35 -5.9700705e+00 1.30e+00 6.64e+03  -6.0 1.17e+03    -  2.50e-03 2.10e-02h  1
  36 -5.9716842e+00 1.08e+00 2.34e+03  -6.0 2.36e+02    -  9.83e-01 2.55e-01h  1
  37 -5.9790654e+00 1.62e+00 2.20e+03  -6.0 2.34e+02    -  2.61e-01 1.00e+00h  1
  38 -5.9812996e+00 1.32e+00 3.15e+03  -6.0 2.26e+02    -  4.65e-01 2.37e-01h  1
  39 -5.9909594e+00 1.43e+00 2.08e+02  -6.0 2.23e+02    -  1.00e+00 1.00e+00h  1
iter    objective    inf_pr   inf_du lg(mu)  ||d||  lg(rg) alpha_du alpha_pr  ls
  40 -5.9951766e+00 1.09e+00 1.13e+04  -6.0 2.09e+02    -  4.64e-01 3.37e-01h  1
  41 -6.0065112e+00 1.24e+00 7.68e+04  -6.0 2.10e+02    -  3.99e-01 1.00e+00h  1
  42 -6.0089352e+00 1.03e+00 8.51e+04  -6.0 2.32e+02    -  5.24e-01 2.37e-01h  1
  43 -6.0166476e+00 1.15e+00 1.19e+05  -6.0 2.63e+02    -  3.41e-01 6.36e-01h  1
  44r-6.0166476e+00 1.15e+00 1.00e+03   0.1 0.00e+00    -  0.00e+00 3.61e-07R  2
  45r-6.1395872e+00 1.15e+00 1.00e+03   0.1 3.35e+04    -  4.07e-06 1.59e-06f  1
  46 -6.1371109e+00 1.13e+00 8.86e+05  -6.0 1.19e+01    -  5.68e-01 1.98e-02h  1
  47 -6.0849457e+00 6.51e-01 1.93e+07  -6.0 1.35e+01    -  1.98e-02 4.24e-01h  1
  48 -6.0133832e+00 6.84e-03 3.40e+04  -6.0 9.20e+00    -  3.45e-01 9.98e-01h  1
  49 -6.0134512e+00 1.01e-04 1.67e+01  -6.0 6.13e-01    -  9.71e-01 1.00e+00h  1
iter    objective    inf_pr   inf_du lg(mu)  ||d||  lg(rg) alpha_du alpha_pr  ls
  50 -6.0136242e+00 1.16e-04 5.06e+02  -6.0 4.59e+00    -  9.69e-01 1.10e-01h  1
  51 -6.0154697e+00 4.87e-01 5.00e+02  -6.0 6.37e+03    -  3.10e-02 8.38e-03f  1
  52 -6.0181904e+00 3.79e-01 3.35e+02  -6.0 2.03e+02    -  2.65e-01 3.34e-01h  2
  53 -6.0163403e+00 2.03e-02 4.09e+01  -6.0 2.20e+01    -  7.41e-01 1.00e+00h  1
  54 -6.0185060e+00 2.62e-01 3.16e+01  -6.0 8.89e+02    -  2.35e-01 1.01e-01h  1
  55 -6.0187844e+00 2.51e-02 3.24e+04  -6.0 2.48e+01    -  1.90e-03 1.00e+00h  1
  56 -6.0169748e+00 7.30e-03 3.87e+02  -6.0 1.47e+01    -  9.63e-01 1.00e+00h  1
  57 -6.0172247e+00 1.27e-02 1.80e+02  -6.0 2.97e+01    -  3.59e-01 5.00e-01h  2
  58 -6.0172768e+00 6.05e-03 1.78e+00  -6.0 1.21e+01    -  9.99e-01 1.00e+00h  1
  59 -6.0173804e+00 9.12e-04 1.52e-02  -6.0 4.69e+00    -  1.00e+00 1.00e+00h  1
iter    objective    inf_pr   inf_du lg(mu)  ||d||  lg(rg) alpha_du alpha_pr  ls
  60 -6.0173987e+00 1.85e-05 3.59e-04  -6.0 6.69e-01    -  1.00e+00 1.00e+00h  1
  61 -6.0173991e+00 7.15e-09 1.21e-07  -6.0 1.31e-02    -  1.00e+00 1.00e+00h  1
  62 -6.0174670e+00 9.63e-03 6.45e+01  -7.5 3.20e+01    -  9.56e-01 7.33e-01h  1
  63 -6.0174746e+00 2.59e-03 1.16e+01  -7.5 9.46e+00    -  1.00e+00 8.50e-01h  1
  64 -6.0174746e+00 3.37e-05 1.17e-02  -7.5 1.38e+00    -  1.00e+00 1.00e+00h  1
  65 -6.0174746e+00 2.84e-10 1.07e-09  -7.5 1.10e-03    -  1.00e+00 1.00e+00h  1
  66 -6.0174762e+00 1.44e-05 6.94e-01  -9.0 1.06e+00    -  9.27e-01 8.51e-01h  1
  67 -6.0174765e+00 4.44e-07 3.84e-01  -9.0 1.58e-01    -  9.01e-01 1.00e+00f  1
  68 -6.0174765e+00 2.85e-10 2.32e-08  -9.0 5.23e-05    -  1.00e+00 1.00e+00h  1
  69 -6.0174765e+00 2.84e-10 4.77e-10  -9.0 1.32e-05    -  1.00e+00 1.00e+00h  1

Number of Iterations....: 69

                                   (scaled)                 (unscaled)
Objective...............:  -4.7011534876244587e+00   -6.0174764641593068e+00
Dual infeasibility......:   4.7667251432346087e-10    6.1014081833402997e-10
Constraint violation....:   2.8429761561414579e-10    2.8429761561414579e-10
Complementarity.........:   9.2178238890552703e-10    1.1798814577990746e-09
Overall NLP error.......:   9.2178238890552703e-10    1.1798814577990746e-09


Number of objective function evaluations             = 121
Number of objective gradient evaluations             = 70
Number of equality constraint evaluations            = 121
Number of inequality constraint evaluations          = 121
Number of equality constraint Jacobian evaluations   = 72
Number of inequality constraint Jacobian evaluations = 72
Number of Lagrangian Hessian evaluations             = 69
Total CPU secs in IPOPT (w/o function evaluations)   =    113.179
Total CPU secs in NLP function evaluations           =      3.091

EXIT: Optimal Solution Found.
